weight_CS_SC = 1  ;
weight_CS_SS =  1 ;
weight_CS_SDS = 2  ;
weight_CS_SPF =  3 ;
weight_CS_DI =  1 ;
weight_CS_PT =  1 ;
weight_CS_PDT =  2 ;
weight_PE =  2 ;
weight_PE2MHB =  2 ;
weight_PE2MT =  2 ;
weight_CS_PM =  1 ;
weight_DCP_S =  1 ;
weight_DEP_S =  2 ;
weight_DCP_H =  1 ;
weight_DEP_H =  2 ;
weight_CAS_DAC =  1 ;
weight_CAS_DC =  0 ;
weight_CAS_DE = 1  ;
weight_CAS_DMA =  1 ;
weight_CAS_DRN =  1 ;
weight_CAS_DR =  1 ;
weight_SE2OC =  1 ;
weight_SE =  2 ;
weight_SX2OC =  1 ;
weight_SX =  3 ;
weight_CAS_MH = 1  ;
weight_CAS_MP = 0  ;
weight_MC_O =  0 ;
weight_MC_I = 1  ;
weight_PT2MHB_PDT2MHB =  0 ;
weight_OC =  0 ;

